PARAMETER_FILE = /home/jyf/ROS_project/RACER-test/src/RACER-main/swarm_exploration/utils/lkh_mtsp_solver/resource/amtsp2_1.par
PROBLEM_FILE = /home/jyf/ROS_project/RACER-test/src/RACER-main/swarm_exploration/utils/lkh_mtsp_solver/resource/amtsp2_1.atsp
Successes/Runs = 0/1 
Cost.min = -94412, Cost.avg = -94412.00, Cost.max = -94412
Gap.min = -0.0000%, Gap.avg = -0.0000%, Gap.max = -0.0000%
Trials.min = 28, Trials.avg = 28.0, Trials.max = 28
Time.min = 0.00 sec., Time.avg = 0.00 sec., Time.max = 0.00 sec.
Best ATSP solution:
  Cost = 0_-94412

PARAMETER_FILE = /home/jyf/ROS_project/RACER-test/src/RACER-main/swarm_exploration/utils/lkh_mtsp_solver/resource/amtsp2_1.par
PROBLEM_FILE = /home/jyf/ROS_project/RACER-test/src/RACER-main/swarm_exploration/utils/lkh_mtsp_solver/resource/amtsp2_1.atsp
Successes/Runs = 0/1 
Cost.min = -98166, Cost.avg = -98166.00, Cost.max = -98166
Gap.min = -0.0000%, Gap.avg = -0.0000%, Gap.max = -0.0000%
Trials.min = 50, Trials.avg = 50.0, Trials.max = 50
Time.min = 0.00 sec., Time.avg = 0.00 sec., Time.max = 0.00 sec.
Best ATSP solution:
  Cost = 0_-98166

PARAMETER_FILE = /home/jyf/ROS_project/RACER-test/src/RACER-main/swarm_exploration/utils/lkh_mtsp_solver/resource/amtsp_1.par
PROBLEM_FILE = /home/jyf/ROS_project/RACER-test/src/RACER-main/swarm_exploration/utils/lkh_mtsp_solver/resource/amtsp_1.atsp
Successes/Runs = 1/0 
Cost.min = -199511, Cost.avg = -199511.00, Cost.max = -199511
Gap.min = -0.0000%, Gap.avg = -0.0000%, Gap.max = -0.0000%
Trials.min = 50, Trials.avg = 50.0, Trials.max = 50
Time.min = 0.00 sec., Time.avg = 0.00 sec., Time.max = 0.00 sec.
Best ATSP solution:
  Cost = 0_-199511

PARAMETER_FILE = /home/jyf/ROS_project/RACER-test/src/RACER-main/swarm_exploration/utils/lkh_mtsp_solver/resource/amtsp2_1.par
PROBLEM_FILE = /home/jyf/ROS_project/RACER-test/src/RACER-main/swarm_exploration/utils/lkh_mtsp_solver/resource/amtsp2_1.atsp
Successes/Runs = 1/0 
Cost.min = -98509, Cost.avg = -98509.00, Cost.max = -98509
Gap.min = -0.0000%, Gap.avg = -0.0000%, Gap.max = -0.0000%
Trials.min = 50, Trials.avg = 50.0, Trials.max = 50
Time.min = 0.00 sec., Time.avg = 0.00 sec., Time.max = 0.00 sec.
Best ATSP solution:
  Cost = 0_-98509

PARAMETER_FILE = /home/jyf/ROS_project/RACER-test/src/RACER-main/swarm_exploration/utils/lkh_mtsp_solver/resource/amtsp2_1.par
PROBLEM_FILE = /home/jyf/ROS_project/RACER-test/src/RACER-main/swarm_exploration/utils/lkh_mtsp_solver/resource/amtsp2_1.atsp
Successes/Runs = 1/0 
Cost.min = -99482, Cost.avg = -99482.00, Cost.max = -99482
Gap.min = -0.0000%, Gap.avg = -0.0000%, Gap.max = -0.0000%
Trials.min = 50, Trials.avg = 50.0, Trials.max = 50
Time.min = 0.00 sec., Time.avg = 0.00 sec., Time.max = 0.00 sec.
Best ATSP solution:
  Cost = 0_-99482

PARAMETER_FILE = /home/jyf/ROS_project/RACER-test/src/RACER-main/swarm_exploration/utils/lkh_mtsp_solver/resource/amtsp2_1.par
PROBLEM_FILE = /home/jyf/ROS_project/RACER-test/src/RACER-main/swarm_exploration/utils/lkh_mtsp_solver/resource/amtsp2_1.atsp
Successes/Runs = 1/0 
Cost.min = -99451, Cost.avg = -99451.00, Cost.max = -99451
Gap.min = -0.0000%, Gap.avg = -0.0000%, Gap.max = -0.0000%
Trials.min = 50, Trials.avg = 50.0, Trials.max = 50
Time.min = 0.00 sec., Time.avg = 0.00 sec., Time.max = 0.00 sec.
Best ATSP solution:
  Cost = 0_-99451

PARAMETER_FILE = /home/jyf/ROS_project/RACER-test/src/RACER-main/swarm_exploration/utils/lkh_mtsp_solver/resource/amtsp2_1.par
PROBLEM_FILE = /home/jyf/ROS_project/RACER-test/src/RACER-main/swarm_exploration/utils/lkh_mtsp_solver/resource/amtsp2_1.atsp
Successes/Runs = 1/0 
Cost.min = -99376, Cost.avg = -99376.00, Cost.max = -99376
Gap.min = -0.0000%, Gap.avg = -0.0000%, Gap.max = -0.0000%
Trials.min = 50, Trials.avg = 50.0, Trials.max = 50
Time.min = 0.00 sec., Time.avg = 0.00 sec., Time.max = 0.00 sec.
Best ATSP solution:
  Cost = 0_-99376

PARAMETER_FILE = /home/jyf/ROS_project/RACER-test/src/RACER-main/swarm_exploration/utils/lkh_mtsp_solver/resource/amtsp2_1.par
PROBLEM_FILE = /home/jyf/ROS_project/RACER-test/src/RACER-main/swarm_exploration/utils/lkh_mtsp_solver/resource/amtsp2_1.atsp
Successes/Runs = 1/0 
Cost.min = -99307, Cost.avg = -99307.00, Cost.max = -99307
Gap.min = -0.0000%, Gap.avg = -0.0000%, Gap.max = -0.0000%
Trials.min = 50, Trials.avg = 50.0, Trials.max = 50
Time.min = 0.00 sec., Time.avg = 0.00 sec., Time.max = 0.00 sec.
Best ATSP solution:
  Cost = 0_-99307

PARAMETER_FILE = /home/jyf/ROS_project/RACER-test/src/RACER-main/swarm_exploration/utils/lkh_mtsp_solver/resource/amtsp_1.par
PROBLEM_FILE = /home/jyf/ROS_project/RACER-test/src/RACER-main/swarm_exploration/utils/lkh_mtsp_solver/resource/amtsp_1.atsp
Successes/Runs = 1/0 
Cost.min = -199143, Cost.avg = -199143.00, Cost.max = -199143
Gap.min = -0.0000%, Gap.avg = -0.0000%, Gap.max = -0.0000%
Trials.min = 50, Trials.avg = 50.0, Trials.max = 50
Time.min = 0.00 sec., Time.avg = 0.00 sec., Time.max = 0.00 sec.
Best ATSP solution:
  Cost = 0_-199143

